NAME : rbg067a.tw.4625.tour
COMMENT : Length = 4625
COMMENT : Found by LKH [Keld Helsgaun] Thu Jan 16 16:41:05 2020
TYPE : TOUR
DIMENSION : 68
TOUR_SECTION
1
4
3
5
2
6
9
10
7
8
12
13
11
14
17
15
18
19
16
22
20
21
26
23
27
25
24
28
32
33
31
29
30
36
35
34
37
38
40
39
41
45
46
47
52
44
49
42
43
50
48
51
53
57
54
62
55
56
58
61
64
63
60
65
59
68
67
66
-1
EOF
